Route #1: 7 35 8 54 13
Route #2: 19 14 53
Route #3: 11 38
Route #4: 10 31 39
Route #5: 9 25 50
Route #6: 18 24 49 23 16
Route #7: 17 40 12
Route #8: 32 44 3 51
Route #9: 6 33
Route #10: 2 28 22
Route #11: 42 41 43 1
Route #12: 30 48 21
Route #13: 47 36 37 20
Route #14: 15 5 29 45
Route #15: 52 27 4
Route #16: 34 46 26
Cost 964